     Program PWSCF v.6.5 starts on 23Jun2020 at 13:36:39

     K-points division:     npool     =       4
     R & G space division:  proc/nbgrp/npool/nimage =       5
     Waiting for input...
     Reading input from standard input
Warning: card &IONS ignored
Warning: card   ION_DYNAMICS = 'BFGS' ignored
Warning: card / ignored
Warning: card &CELL ignored
Warning: card   PRESS = 0.D0 ignored
Warning: card / ignored

     Current dimensions of program PWSCF are:
     Max number of different atomic species (ntypx) = 10
     Max number of k-points (npk) =  40000
     Max angular momentum in pseudopotentials (lmaxx) =  3

     Message from routine setup:
     using ibrav=0 with symmetry is DISCOURAGED, use correct ibrav instead

     bravais-lattice index     =            0
     lattice parameter (alat)  =       9.9556  a.u.
     unit-cell volume          =     648.8498 (a.u.)^3
     number of atoms/cell      =           10
     number of atomic types    =            3
     number of electrons       =        74.00
     number of Kohn-Sham states=           44
     kinetic-energy cutoff     =     100.0000  Ry
     charge density cutoff     =     400.0000  Ry
     convergence threshold     =      1.0E-12
     mixing beta               =       0.3000
     number of iterations used =            8  plain     mixing
     Exchange-correlation= PBESOL
                           (   1   4  10   8   0   0   0)

     celldm(1)=   9.955646  celldm(2)=   0.000000  celldm(3)=   0.000000
     celldm(4)=   0.000000  celldm(5)=   0.000000  celldm(6)=   0.000000

     crystal axes: (cart. coord. in units of alat)
               a(1) = (   0.476865   0.275318   0.834745 )
               a(2) = (  -0.476865   0.275318   0.834745 )
               a(3) = (   0.000000  -0.550637   0.834745 )

     reciprocal axes: (cart. coord. in units 2 pi/alat)
               b(1) = (  1.048514  0.605360  0.399323 )
               b(2) = ( -1.048514  0.605360  0.399323 )
               b(3) = (  0.000000 -1.210720  0.399323 )

     PseudoPot. # 1 for Li read from file:
     /scratch/yf1159/pwwork/psp/Li.upf
     MD5 check sum: dc9f6e608df41cc7e5665a263ba47fe0
     Pseudo is Norm-conserving, Zval =  3.0
     Generated using ONCVPSP code by D. R. Hamann
     Using radial grid of 1944 points,  4 beta functions with:
                l(1) =   0
                l(2) =   0
                l(3) =   1
                l(4) =   1

     PseudoPot. # 2 for Os read from file:
     /scratch/yf1159/pwwork/psp/Os.upf
     MD5 check sum: ddc0cf69cd6bd23badf4cab974e3dee8
     Pseudo is Norm-conserving + core correction, Zval = 16.0
     Generated using ONCVPSP code by D. R. Hamann
     Using radial grid of 1328 points,  8 beta functions with:
                l(1) =   0
                l(2) =   0
                l(3) =   1
                l(4) =   1
                l(5) =   2
                l(6) =   2
                l(7) =   3
                l(8) =   3

     PseudoPot. # 3 for O  read from file:
     /scratch/yf1159/pwwork/psp/O.upf
     MD5 check sum: f226cbcd508cec715ff87a8f75a1dfba
     Pseudo is Norm-conserving + core correction, Zval =  6.0
     Generated using ONCVPSP code by D. R. Hamann
     Using radial grid of  936 points,  5 beta functions with:
                l(1) =   0
                l(2) =   0
                l(3) =   1
                l(4) =   1
                l(5) =   2

     atomic species   valence    mass     pseudopotential
        Li             3.00     6.94100     Li( 1.00)
        Os            16.00   190.23000     Os( 1.00)
        O              6.00    15.99940     O ( 1.00)

      6 Sym. Ops. (no inversion) found ( 3 have fractional translation)

                                    s                        frac. trans.

      isym =  1     identity

 cryst.   s( 1) = (     1          0          0      )
                  (     0          1          0      )
                  (     0          0          1      )

 cart.    s( 1) = (  1.0000000  0.0000000  0.0000000 )
                  (  0.0000000  1.0000000  0.0000000 )
                  (  0.0000000  0.0000000  1.0000000 )

      isym =  2     120 deg rotation - cryst. axis [0,0,1]

[...]

      isym =  3     120 deg rotation - cryst. axis [0,0,-1]

 cryst.   s( 3) = (     0          0          1      )
                  (     1          0          0      )
                  (     0          1          0      )

 cart.    s( 3) = ( -0.5000000  0.8660254 -0.0000000 )
                  ( -0.8660254 -0.5000000  0.0000000 )
                  (  0.0000000  0.0000000  1.0000000 )

      isym =  4     inv. 180 deg rotation - cart. axis [1,0,0]

 cryst.   s( 4) = (     0          1          0      )    f =( -0.5000000 )
                  (     1          0          0      )       ( -0.5000000 )
                  (     0          0          1      )       ( -0.5000000 )

 cart.    s( 4) = ( -1.0000000  0.0000000  0.0000000 )    f =(  0.0000000 )
                  (  0.0000000  1.0000000  0.0000000 )       ( -0.0000000 )
                  (  0.0000000  0.0000000  1.0000000 )       ( -1.2521177 )

      isym =  5     inv. 180 deg rotation - cryst. axis [0,1,0]

[...]

      isym =  6     inv. 180 deg rotation - cryst. axis [1,1,0]

 cryst.   s( 6) = (     0          0          1      )    f =( -0.5000000 )
                  (     0          1          0      )       ( -0.5000000 )
                  (     1          0          0      )       ( -0.5000000 )

 cart.    s( 6) = (  0.5000000 -0.8660254  0.0000000 )    f =(  0.0000000 )
                  ( -0.8660254 -0.5000000  0.0000000 )       ( -0.0000000 )
                  (  0.0000000  0.0000000  1.0000000 )       ( -1.2521177 )

   Cartesian axes

     site n.     atom                  positions (alat units)
         1           Li  tau(   1) = (   0.0000000   0.0000000   0.5391147  )
         2           Li  tau(   2) = (   0.0000000   0.0000000   1.7912324  )
         3           Os  tau(   3) = (   0.0000000   0.0000000   0.0000278  )
         4           Os  tau(   4) = (   0.0000000   0.0000000   1.2521455  )
         5           O   tau(   5) = (   0.3027206   0.0316430   1.0492927  )
         6           O   tau(   6) = (  -0.1787640   0.2463422   1.0492927  )
         7           O   tau(   7) = (  -0.1239566  -0.2779853   1.0492927  )
         8           O   tau(   8) = (   0.1741446  -0.2436752   1.4666653  )
         9           O   tau(   9) = (  -0.2981012  -0.0289760   1.4666653  )
        10           O   tau(  10) = (   0.1239566   0.2726512   1.4666653  )

   Crystallographic axes

     site n.     atom                  positions (cryst. coord.)
         1           Li  tau(   1) = (  0.2152811  0.2152811  0.2152811  )
         2           Li  tau(   2) = (  0.7152812  0.7152812  0.7152812  )
         3           Os  tau(   3) = (  0.0000111  0.0000111  0.0000111  )
         4           Os  tau(   4) = (  0.5000111  0.5000111  0.5000111  )
         5           O   tau(   5) = (  0.7555695  0.1207557  0.3806964  )
         6           O   tau(   6) = (  0.3806964  0.7555695  0.1207557  )
         7           O   tau(   7) = (  0.1207557  0.3806964  0.7555695  )
         8           O   tau(   8) = (  0.6207557  0.2555695  0.8806964  )
         9           O   tau(   9) = (  0.2555695  0.8806964  0.6207557  )
        10           O   tau(  10) = (  0.8806964  0.6207557  0.2555695  )

     number of k points=    65  Gaussian smearing, width (Ry)=  0.0050
                       cart. coord. in units 2pi/alat
        k(    1) = (   0.0000000   0.0000000   0.0000000), wk =   0.0039062
        k(    2) = (   0.0000000  -0.1513400   0.0499154), wk =   0.0234375
        k(    3) = (   0.0000000  -0.3026800   0.0998309), wk =   0.0234375
        k(    4) = (   0.0000000  -0.4540200   0.1497463), wk =   0.0234375
        k(    5) = (   0.0000000   0.6053600  -0.1996617), wk =   0.0117188
        k(    6) = (  -0.1310643  -0.0756700   0.0998309), wk =   0.0234375
        k(    7) = (  -0.1310643  -0.2270100   0.1497463), wk =   0.0468750
        k(    8) = (  -0.1310643  -0.3783500   0.1996617), wk =   0.0468750
        k(    9) = (  -0.1310643   0.6810300  -0.1497463), wk =   0.0468750
        k(   10) = (  -0.1310643   0.5296900  -0.0998309), wk =   0.0468750
        k(   11) = (  -0.1310643   0.3783500  -0.0499154), wk =   0.0468750
        k(   12) = (  -0.1310643   0.2270100  -0.0000000), wk =   0.0234375
        k(   13) = (  -0.2621286  -0.1513400   0.1996617), wk =   0.0234375
        k(   14) = (  -0.2621286  -0.3026800   0.2495772), wk =   0.0468750
        k(   15) = (  -0.2621286   0.7567000  -0.0998309), wk =   0.0468750
        k(   16) = (  -0.2621286   0.6053600  -0.0499154), wk =   0.0468750
        k(   17) = (  -0.2621286   0.4540200  -0.0000000), wk =   0.0234375
        k(   18) = (  -0.3931929  -0.2270100   0.2994926), wk =   0.0234375
        k(   19) = (  -0.3931929   0.8323700  -0.0499154), wk =   0.0468750
        k(   20) = (  -0.3931929   0.6810300  -0.0000000), wk =   0.0234375
        k(   21) = (   0.5242572   0.3026800  -0.3993235), wk =   0.0117188
        k(   22) = (   0.0000000   0.0000000   0.1497463), wk =   0.0078125
        k(   23) = (   0.0000000  -0.1513400   0.1996617), wk =   0.0234375
        k(   24) = (   0.0000000  -0.3026800   0.2495772), wk =   0.0234375
        k(   25) = (   0.0000000   0.7567000  -0.0998309), wk =   0.0234375
        k(   26) = (   0.0000000   0.6053600  -0.0499154), wk =   0.0234375
        k(   27) = (   0.0000000   0.4540200  -0.0000000), wk =   0.0234375
        k(   28) = (   0.0000000   0.3026800   0.0499154), wk =   0.0234375
        k(   29) = (  -0.1310643  -0.0756700   0.2495772), wk =   0.0234375
        k(   30) = (  -0.1310643  -0.2270100   0.2994926), wk =   0.0468750
        k(   31) = (  -0.1310643   0.8323700  -0.0499154), wk =   0.0468750
        k(   32) = (  -0.1310643   0.6810300  -0.0000000), wk =   0.0468750
        k(   33) = (  -0.1310643   0.5296900   0.0499154), wk =   0.0468750
        k(   34) = (  -0.1310643   0.3783500   0.0998309), wk =   0.0468750
        k(   35) = (  -0.2621286  -0.1513400   0.3494080), wk =   0.0234375
        k(   36) = (  -0.2621286   0.9080401  -0.0000000), wk =   0.0468750
        k(   37) = (  -0.2621286   0.7567000   0.0499154), wk =   0.0468750
        k(   38) = (  -0.2621286   0.6053600   0.0998309), wk =   0.0468750
        k(   39) = (  -0.2621286   0.4540200   0.1497463), wk =   0.0468750
        k(   40) = (   0.6553215   0.3783500  -0.3494080), wk =   0.0234375
        k(   41) = (   0.6553215   0.2270100  -0.2994926), wk =   0.0468750
        k(   42) = (   0.6553215   0.0756700  -0.2495772), wk =   0.0468750
        k(   43) = (   0.6553215  -0.0756700  -0.1996617), wk =   0.0234375
        k(   44) = (   0.5242572   0.3026800  -0.2495772), wk =   0.0234375
        k(   45) = (   0.5242572   0.1513400  -0.1996617), wk =   0.0468750
        k(   46) = (   0.3931929   0.2270100  -0.1497463), wk =   0.0234375
        k(   47) = (   0.0000000   0.0000000   0.2994926), wk =   0.0078125
        k(   48) = (   0.0000000  -0.1513400   0.3494080), wk =   0.0234375
        k(   49) = (   0.0000000   0.9080401  -0.0000000), wk =   0.0234375
        k(   50) = (   0.0000000   0.7567000   0.0499154), wk =   0.0234375
        k(   51) = (   0.0000000   0.6053600   0.0998309), wk =   0.0234375
        k(   52) = (  -0.1310643  -0.0756700   0.3993235), wk =   0.0234375
        k(   53) = (  -0.1310643   0.9837101   0.0499154), wk =   0.0468750
        k(   54) = (  -0.1310643   0.8323700   0.0998309), wk =   0.0468750
        k(   55) = (  -0.1310643   0.6810300   0.1497463), wk =   0.0468750
        k(   56) = (   0.7863858   0.4540200  -0.2994926), wk =   0.0234375
        k(   57) = (   0.7863858   0.3026800  -0.2495772), wk =   0.0468750
        k(   58) = (   0.7863858   0.1513400  -0.1996617), wk =   0.0234375
        k(   59) = (   0.6553215   0.3783500  -0.1996617), wk =   0.0234375
        k(   60) = (   0.0000000   0.0000000   0.4492389), wk =   0.0078125
        k(   61) = (   0.0000000   1.0593801   0.0998309), wk =   0.0234375
        k(   62) = (   0.0000000   0.9080401   0.1497463), wk =   0.0234375
        k(   63) = (   0.9174500   0.5296900  -0.2495772), wk =   0.0234375
        k(   64) = (   0.9174500   0.3783500  -0.1996617), wk =   0.0234375
        k(   65) = (   0.0000000   0.0000000  -0.5989852), wk =   0.0039062

                       cryst. coord.
        k(    1) = (   0.0000000   0.0000000   0.0000000), wk =   0.0039062
        k(    2) = (  -0.0000000  -0.0000000   0.1250000), wk =   0.0234375
        k(    3) = (  -0.0000000  -0.0000000   0.2500000), wk =   0.0234375
        k(    4) = (   0.0000000   0.0000000   0.3750000), wk =   0.0234375
        k(    5) = (   0.0000000   0.0000000  -0.5000000), wk =   0.0117188
        k(    6) = (  -0.0000000   0.1250000   0.1250000), wk =   0.0234375
        k(    7) = (   0.0000000   0.1250000   0.2500000), wk =   0.0468750
        k(    8) = (   0.0000000   0.1250000   0.3750000), wk =   0.0468750
        k(    9) = (  -0.0000000   0.1250000  -0.5000000), wk =   0.0468750
        k(   10) = (   0.0000000   0.1250000  -0.3750000), wk =   0.0468750
        k(   11) = (   0.0000000   0.1250000  -0.2500000), wk =   0.0468750
        k(   12) = (   0.0000000   0.1250000  -0.1250000), wk =   0.0234375
        k(   13) = (  -0.0000000   0.2500000   0.2500000), wk =   0.0234375
        k(   14) = (  -0.0000000   0.2500000   0.3750000), wk =   0.0468750
        k(   15) = (   0.0000000   0.2500000  -0.5000000), wk =   0.0468750
        k(   16) = (   0.0000000   0.2500000  -0.3750000), wk =   0.0468750
        k(   17) = (   0.0000000   0.2500000  -0.2500000), wk =   0.0234375
        k(   18) = (   0.0000000   0.3750000   0.3750000), wk =   0.0234375
        k(   19) = (  -0.0000000   0.3750000  -0.5000000), wk =   0.0468750
        k(   20) = (  -0.0000000   0.3750000  -0.3750000), wk =   0.0234375
        k(   21) = (   0.0000000  -0.5000000  -0.5000000), wk =   0.0117188
        k(   22) = (   0.1250000   0.1250000   0.1250000), wk =   0.0078125
        k(   23) = (   0.1250000   0.1250000   0.2500000), wk =   0.0234375
        k(   24) = (   0.1250000   0.1250000   0.3750000), wk =   0.0234375
        k(   25) = (   0.1250000   0.1250000  -0.5000000), wk =   0.0234375
        k(   26) = (   0.1250000   0.1250000  -0.3750000), wk =   0.0234375
        k(   27) = (   0.1250000   0.1250000  -0.2500000), wk =   0.0234375
        k(   28) = (   0.1250000   0.1250000  -0.1250000), wk =   0.0234375
        k(   29) = (   0.1250000   0.2500000   0.2500000), wk =   0.0234375
        k(   30) = (   0.1250000   0.2500000   0.3750000), wk =   0.0468750
        k(   31) = (   0.1250000   0.2500000  -0.5000000), wk =   0.0468750
        k(   32) = (   0.1250000   0.2500000  -0.3750000), wk =   0.0468750
        k(   33) = (   0.1250000   0.2500000  -0.2500000), wk =   0.0468750
        k(   34) = (   0.1250000   0.2500000  -0.1250000), wk =   0.0468750
        k(   35) = (   0.1250000   0.3750000   0.3750000), wk =   0.0234375
        k(   36) = (   0.1250000   0.3750000  -0.5000000), wk =   0.0468750
        k(   37) = (   0.1250000   0.3750000  -0.3750000), wk =   0.0468750
        k(   38) = (   0.1250000   0.3750000  -0.2500000), wk =   0.0468750
        k(   39) = (   0.1250000   0.3750000  -0.1250000), wk =   0.0468750
        k(   40) = (   0.1250000  -0.5000000  -0.5000000), wk =   0.0234375
        k(   41) = (   0.1250000  -0.5000000  -0.3750000), wk =   0.0468750
        k(   42) = (   0.1250000  -0.5000000  -0.2500000), wk =   0.0468750
        k(   43) = (   0.1250000  -0.5000000  -0.1250000), wk =   0.0234375
        k(   44) = (   0.1250000  -0.3750000  -0.3750000), wk =   0.0234375
        k(   45) = (   0.1250000  -0.3750000  -0.2500000), wk =   0.0468750
        k(   46) = (   0.1250000  -0.2500000  -0.2500000), wk =   0.0234375
        k(   47) = (   0.2500000   0.2500000   0.2500000), wk =   0.0078125
        k(   48) = (   0.2500000   0.2500000   0.3750000), wk =   0.0234375
        k(   49) = (   0.2500000   0.2500000  -0.5000000), wk =   0.0234375
        k(   50) = (   0.2500000   0.2500000  -0.3750000), wk =   0.0234375
        k(   51) = (   0.2500000   0.2500000  -0.2500000), wk =   0.0234375
        k(   52) = (   0.2500000   0.3750000   0.3750000), wk =   0.0234375
        k(   53) = (   0.2500000   0.3750000  -0.5000000), wk =   0.0468750
        k(   54) = (   0.2500000   0.3750000  -0.3750000), wk =   0.0468750
        k(   55) = (   0.2500000   0.3750000  -0.2500000), wk =   0.0468750
        k(   56) = (   0.2500000  -0.5000000  -0.5000000), wk =   0.0234375
        k(   57) = (   0.2500000  -0.5000000  -0.3750000), wk =   0.0468750
        k(   58) = (   0.2500000  -0.5000000  -0.2500000), wk =   0.0234375
        k(   59) = (   0.2500000  -0.3750000  -0.3750000), wk =   0.0234375
        k(   60) = (   0.3750000   0.3750000   0.3750000), wk =   0.0078125
        k(   61) = (   0.3750000   0.3750000  -0.5000000), wk =   0.0234375
        k(   62) = (   0.3750000   0.3750000  -0.3750000), wk =   0.0234375
        k(   63) = (   0.3750000  -0.5000000  -0.5000000), wk =   0.0234375
        k(   64) = (   0.3750000  -0.5000000  -0.3750000), wk =   0.0234375
        k(   65) = (  -0.5000000  -0.5000000  -0.5000000), wk =   0.0039062

     Initial potential from superposition of free atoms

     starting charge   73.99007, renormalised to   74.00000
     Starting wfcs are   48 randomized atomic wfcs

     Self-consistent Calculation

     iteration #  1     ecut=   100.00 Ry     beta= 0.30
     Davidson diagonalization with overlap
     ethr =  1.00E-02,  avg # of iterations =  2.0

     total energy              =    -630.60888112 Ry
     Harris-Foulkes estimate   =    -631.79998833 Ry
     estimated scf accuracy    <       2.66705238 Ry

[...]

     total energy              =    -631.16238158 Ry
     Harris-Foulkes estimate   =    -631.16238158 Ry
     estimated scf accuracy    <          1.1E-11 Ry

     iteration # 14     ecut=   100.00 Ry     beta= 0.30
     Davidson diagonalization with overlap
     ethr =  1.00E-13,  avg # of iterations =  1.0

     End of self-consistent calculation

          k = 0.0000 0.0000 0.0000 ( 10905 PWs)   bands (ev):

   -76.5368 -76.5354 -35.9599 -35.9196 -35.8878 -35.8878 -35.8522 -35.8522
   -32.5437 -32.5389  -9.1155  -8.0189  -8.0189  -6.9789  -6.9568  -6.9568
     2.5930   2.5930   2.9156   3.5428   3.5428   3.7823   5.6211   5.6211
     6.2142   7.2602   7.4488   8.1365   8.1365   8.4073   8.4073   8.5918
     8.5918   8.7480   9.3292   9.3292   9.6137  11.6162  11.6162  12.6873
    14.6955  14.6955  16.5479  18.4109

     occupation numbers
     1.0000   1.0000   1.0000   1.0000   1.0000   1.0000   1.0000   1.0000
     1.0000   1.0000   1.0000   1.0000   1.0000   1.0000   1.0000   1.0000
     1.0000   1.0000   1.0000   1.0000   1.0000   1.0000   1.0000   1.0000
     1.0000   1.0000   1.0000   1.0000   1.0000   1.0000   1.0000   1.0000
     1.0000   1.0000   1.0000   1.0000   1.0000   0.0000   0.0000   0.0000
     0.0000   0.0000   0.0000   0.0000

[...]

          k =-0.1311-0.0757 0.0998 ( 10915 PWs)   bands (ev):

[...]

          k =-0.1311 0.6810 0.1497 ( 10966 PWs)   bands (ev):

[...]

          k = 0.0000 0.0000-0.5990 ( 10952 PWs)   bands (ev):

   -76.5361 -76.5361 -35.9402 -35.9402 -35.8701 -35.8701 -35.8701 -35.8701
   -32.5410 -32.5410  -8.1736  -8.1736  -7.5303  -7.5303  -7.5303  -7.5303
     3.9076   3.9076   3.9076   3.9076   4.5546   4.5546   5.1870   5.1870
     5.1870   5.1870   5.2734   5.2734   7.9503   7.9503   8.3873   8.3873
     8.3873   8.3873  11.3313  11.3313  11.7137  11.7137  11.7137  11.7137
    15.9820  15.9820  15.9820  15.9820

     occupation numbers
     1.0000   1.0000   1.0000   1.0000   1.0000   1.0000   1.0000   1.0000
     1.0000   1.0000   1.0000   1.0000   1.0000   1.0000   1.0000   1.0000
     1.0000   1.0000   1.0000   1.0000   1.0000   1.0000   1.0000   1.0000
     1.0000   1.0000   1.0000   1.0000   1.0000   1.0000   1.0000   1.0000
     1.0000   1.0000   0.9395   0.9395   0.0000   0.0000   0.0000   0.0000
     0.0000   0.0000   0.0000   0.0000

     the Fermi energy is    11.4059 ev

!    total energy              =    -631.16238158 Ry
     Harris-Foulkes estimate   =    -631.16238158 Ry
     estimated scf accuracy    <          8.4E-13 Ry

     The total energy is the sum of the following terms:

     one-electron contribution =    -205.52921349 Ry
     hartree contribution      =     138.08434866 Ry
     xc contribution           =    -137.94880810 Ry
     ewald contribution        =    -425.76780308 Ry
     smearing contrib. (-TS)   =      -0.00090557 Ry

     convergence has been achieved in  14 iterations

     Writing output data file ./tmp/LiOsO3.save/

     General routines

     Parallel routines

   This run was terminated on:  13:37:41  23Jun2020

   JOB DONE.